words_hard_train/3339.qaiger
aag 78 16 0 1 62
2
4
8
10
20
22
34
36
70
72
90
92
122
124
132
138
156
6 2 4
12 8 10
14 7 13
16 9 11
18 15 17
24 21 23
26 20 22
28 25 27
30 18 28
32 31 27
38 35 37
40 34 36
42 39 41
44 32 43
46 33 42
48 45 47
50 19 29
52 51 31
54 14 17
56 3 5
58 13 17
60 57 59
62 55 61
64 52 63
66 49 65
68 47 41
74 71 73
76 70 72
78 75 77
80 68 79
82 69 78
84 81 83
86 67 84
88 83 77
94 91 93
96 90 92
98 95 97
100 88 99
102 89 98
104 101 103
106 87 105
108 86 104
110 107 109
112 54 57
114 113 49
116 114 64
118 116 84
120 110 119
126 122 124
128 123 125
130 127 129
134 131 132
136 103 97
140 137 138
142 135 141
144 136 139
146 131 145
148 142 146
150 143 132
152 150 147
154 149 153
156 120 155
i0 2 y1[0]
i1 1 x2[0]
i2 2 y1[1]
i3 1 x2[1]
i4 2 y1[2]
i5 1 x2[2]
i6 2 y1[3]
i7 1 x2[3]
i8 2 y1[4]
i9 1 x2[4]
i10 2 y1[5]
i11 1 x2[5]
i12 2 y1[7]
i13 1 x2[7]
i14 1 x2[6]
i15 2 y1[6]
o0 bv[0]
c
simplified
  >
    invert
      97
    subtract
      244
      add
        2 y1
        1 x2
