words_hard_train/3339.qaiger.qdimacs
p cnf 78 187
a 2 66 36 5 11 46 18 62 0
e 1 3 4 6 7 8 9 10 12 13 14 15 16 17 19 20 21 22 23 24 25 26 27 28 29 30 31 32 33 34 35 37 38 39 40 41 42 43 44 45 47 48 49 50 51 52 53 54 55 56 57 58 59 60 61 63 64 65 67 68 69 70 71 72 73 74 75 76 77 78 0
-1 -2 3 0
1 -3 0
2 -3 0
-4 -5 6 0
4 -6 0
5 -6 0
3 6 7 0
-3 -7 0
-6 -7 0
4 5 8 0
-4 -8 0
-5 -8 0
7 8 9 0
-7 -9 0
-8 -9 0
10 11 12 0
-10 -12 0
-11 -12 0
-10 -11 13 0
10 -13 0
11 -13 0
12 13 14 0
-12 -14 0
-13 -14 0
-9 -14 15 0
9 -15 0
14 -15 0
15 13 16 0
-15 -16 0
-13 -16 0
17 18 19 0
-17 -19 0
-18 -19 0
-17 -18 20 0
17 -20 0
18 -20 0
19 20 21 0
-19 -21 0
-20 -21 0
-16 21 22 0
16 -22 0
-21 -22 0
16 -21 23 0
-16 -23 0
21 -23 0
22 23 24 0
-22 -24 0
-23 -24 0
9 14 25 0
-9 -25 0
-14 -25 0
25 15 26 0
-25 -26 0
-15 -26 0
-7 8 27 0
7 -27 0
-8 -27 0
1 2 28 0
-1 -28 0
-2 -28 0
6 8 29 0
-6 -29 0
-8 -29 0
28 29 30 0
-28 -30 0
-29 -30 0
27 30 31 0
-27 -31 0
-30 -31 0
-26 31 32 0
26 -32 0
-31 -32 0
24 32 33 0
-24 -33 0
-32 -33 0
23 20 34 0
-23 -34 0
-20 -34 0
35 36 37 0
-35 -37 0
-36 -37 0
-35 -36 38 0
35 -38 0
36 -38 0
37 38 39 0
-37 -39 0
-38 -39 0
-34 39 40 0
34 -40 0
-39 -40 0
34 -39 41 0
-34 -41 0
39 -41 0
40 41 42 0
-40 -42 0
-41 -42 0
33 -42 43 0
-33 -43 0
42 -43 0
41 38 44 0
-41 -44 0
-38 -44 0
45 46 47 0
-45 -47 0
-46 -47 0
-45 -46 48 0
45 -48 0
46 -48 0
47 48 49 0
-47 -49 0
-48 -49 0
-44 49 50 0
44 -50 0
-49 -50 0
44 -49 51 0
-44 -51 0
49 -51 0
50 51 52 0
-50 -52 0
-51 -52 0
43 52 53 0
-43 -53 0
-52 -53 0
-43 -52 54 0
43 -54 0
52 -54 0
53 54 55 0
-53 -55 0
-54 -55 0
-27 28 56 0
27 -56 0
-28 -56 0
56 24 57 0
-56 -57 0
-24 -57 0
-57 -32 58 0
57 -58 0
32 -58 0
-58 -42 59 0
58 -59 0
42 -59 0
-55 59 60 0
55 -60 0
-59 -60 0
-61 -62 63 0
61 -63 0
62 -63 0
61 62 64 0
-61 -64 0
-62 -64 0
63 64 65 0
-63 -65 0
-64 -65 0
65 -66 67 0
-65 -67 0
66 -67 0
51 48 68 0
-51 -68 0
-48 -68 0
68 -69 70 0
-68 -70 0
69 -70 0
67 70 71 0
-67 -71 0
-70 -71 0
-68 69 72 0
68 -72 0
-69 -72 0
65 72 73 0
-65 -73 0
-72 -73 0
-71 -73 74 0
71 -74 0
73 -74 0
71 -66 75 0
-71 -75 0
66 -75 0
-75 73 76 0
75 -76 0
-73 -76 0
74 76 77 0
-74 -77 0
-76 -77 0
-60 77 78 0
60 -78 0
-77 -78 0
78 0
